Minimize
  x(1) + x(2) + x(3)
Subject To
e2:    x(4) + x(6) <= 400
e3:  - x(4) + x(5) + x(7) <= 300
e4:  - x(5) + x(8) <= 100
e5: x(1) + 833.333333333333 x(4) + [ - x(1) * x(6) ]  <= 83333.3333333333
e6: - 1250 x(4) + 1250 x(5) + [ x(2) * x(4) - x(2) * x(7) ] <= 0
e7: - 2500 x(5) + [ x(3) * x(5) - x(3) * x(8) ] <= -1250000

Bounds
x(1) >= 100
x(2) >= 1000
x(3) >= 1000
x(4) >= 10
x(5) >= 10
x(6) >= 10
x(7) >= 10
x(8) >= 10
x(1) <= 10000
x(2) <= 10000
x(3) <= 10000
x(4) <= 1000
x(5) <= 1000
x(6) <= 1000
x(7) <= 1000
x(8) <= 1000
End
